Ordonnancement/plne/source/petit_instance/2job/2job_7.dat
data;
param nombreJob := 2;
param nombreRessource := 3;
param duree := 1 3 2 5;
param capaciteRessource := 1 6 2 14 3 11;
param besoinRessource : 1 2 3 :=
                    1   2 6 5
                    2   4 5 9;
end;

